NAME : prob30a.7309.tour
COMMENT : Cost = 0_7309
COMMENT : Found by LKH [Keld Helsgaun] Sun Sep 17 01:06:31 2017
TYPE : TOUR
DIMENSION : 61
TOUR_SECTION
1
48
54
41
57
43
33
52
39
32
56
60
55
9
61
59
45
34
38
49
26
4
46
35
18
42
8
11
47
5
37
40
27
24
29
22
19
50
15
2
36
20
30
13
44
58
10
28
3
14
53
7
17
23
31
51
12
25
21
6
16
-1
EOF
